NAME 
ROWS
 N  OBJ
 L  R0      
 E  R1      
 E  R2      
 E  R3      
 E  R4      
 E  R5      
 E  R6      
 E  R7      
 E  R8      
 E  R9      
 E  R10     
 E  R11     
 E  R12     
 E  R13     
 E  R14     
 E  R15     
 E  R16     
 E  R17     
 E  R18     
 E  R19     
 E  R20     
 E  R21     
 E  R22     
 E  R23     
 E  R24     
 E  R25     
 E  R26     
 E  R27     
 E  R28     
 E  R29     
 E  R30     
COLUMNS
    MARKER    'MARKER'                 'INTORG'
    I0(3)     OBJ       194
    I0(3)     R0        15
    I0(3)     R1        13
    I0(3)     R30       1
    I1(3)     OBJ       132
    I1(3)     R0        192
    I1(3)     R2        14
    I1(3)     R30       1
    I2(3)     OBJ       118
    I2(3)     R0        65
    I2(3)     R3        15
    I2(3)     R30       1
    I3(3)     OBJ       72
    I3(3)     R0        -150
    I3(3)     R4        18
    I3(3)     R30       1
    I4(3)     OBJ       164
    I4(3)     R0        -115
    I4(3)     R5        1
    I4(3)     R30       1
    I5(3)     OBJ       71
    I5(3)     R0        -32
    I5(3)     R6        13
    I5(3)     R30       1
    I6(3)     OBJ       -13
    I6(3)     R0        53
    I6(3)     R7        14
    I6(3)     R30       1
    I7(3)     OBJ       26
    I7(3)     R0        -53
    I7(3)     R8        19
    I7(3)     R30       1
    I8(3)     OBJ       118
    I8(3)     R0        -169
    I8(3)     R9        11
    I8(3)     R30       1
    I9(3)     OBJ       -18
    I9(3)     R0        -186
    I9(3)     R10       17
    I9(3)     R30       1
    I10(3)    OBJ       -179
    I10(3)    R0        -108
    I10(3)    R11       9
    I10(3)    R30       1
    I11(3)    OBJ       87
    I11(3)    R0        17
    I11(3)    R12       3
    I11(3)    R30       1
    I12(3)    OBJ       126
    I12(3)    R0        61
    I12(3)    R13       8
    I12(3)    R30       1
    I13(3)    OBJ       -122
    I13(3)    R0        69
    I13(3)    R14       5
    I13(3)    R30       1
    I14(3)    OBJ       28
    I14(3)    R0        193
    I14(3)    R15       4
    I14(3)    R30       1
    I15(3)    OBJ       23
    I15(3)    R0        37
    I15(3)    R16       17
    I15(3)    R30       1
    I16(3)    OBJ       107
    I16(3)    R0        -6
    I16(3)    R17       14
    I16(3)    R30       1
    I17(3)    OBJ       75
    I17(3)    R0        -184
    I17(3)    R18       2
    I17(3)    R30       1
    I18(3)    OBJ       -59
    I18(3)    R0        -148
    I18(3)    R19       19
    I18(3)    R30       1
    I19(3)    OBJ       -168
    I19(3)    R0        184
    I19(3)    R20       9
    I19(3)    R30       1
    I20(3)    OBJ       76
    I20(3)    R0        71
    I20(3)    R21       19
    I20(3)    R30       1
    I21(2)    OBJ       199
    I21(2)    R0        141
    I21(2)    R30       1
    I22(3)    OBJ       -119
    I22(3)    R0        -29
    I22(3)    R23       13
    I22(3)    R30       1
    I23(3)    OBJ       -12
    I23(3)    R0        -104
    I23(3)    R24       12
    I23(3)    R30       1
    I24(3)    OBJ       46
    I24(3)    R0        138
    I24(3)    R25       13
    I24(3)    R30       1
    I25(2)    OBJ       119
    I25(2)    R0        -186
    I25(2)    R30       1
    I26(3)    OBJ       -158
    I26(3)    R0        -137
    I26(3)    R27       8
    I26(3)    R30       1
    I27(3)    OBJ       -66
    I27(3)    R0        47
    I27(3)    R28       2
    I27(3)    R30       1
    MARKER    'MARKER'                 'INTEND'
    C28(27)   OBJ       6
    C28(27)   R0        7
    C28(27)   R1        6
    C28(27)   R3        1
    C28(27)   R4        18
    C28(27)   R5        15
    C28(27)   R6        9
    C28(27)   R7        19
    C28(27)   R8        3
    C28(27)   R9        13
    C28(27)   R10       1
    C28(27)   R11       17
    C28(27)   R12       4
    C28(27)   R13       14
    C28(27)   R14       18
    C28(27)   R15       2
    C28(27)   R16       6
    C28(27)   R17       17
    C28(27)   R18       19
    C28(27)   R19       16
    C28(27)   R21       15
    C28(27)   R22       1
    C28(27)   R23       6
    C28(27)   R24       -1
    C28(27)   R25       1
    C28(27)   R27       16
    C28(27)   R28       16
    C28(27)   R29       4
    C29(29)   OBJ       -2
    C29(29)   R0        -5
    C29(29)   R1        5
    C29(29)   R2        -1
    C29(29)   R3        9
    C29(29)   R4        5
    C29(29)   R5        1
    C29(29)   R6        11
    C29(29)   R7        8
    C29(29)   R8        7
    C29(29)   R9        6
    C29(29)   R10       11
    C29(29)   R11       16
    C29(29)   R12       6
    C29(29)   R13       18
    C29(29)   R14       7
    C29(29)   R15       16
    C29(29)   R16       19
    C29(29)   R17       16
    C29(29)   R18       2
    C29(29)   R19       12
    C29(29)   R20       13
    C29(29)   R21       6
    C29(29)   R22       9
    C29(29)   R23       13
    C29(29)   R24       8
    C29(29)   R25       7
    C29(29)   R26       9
    C29(29)   R27       1
    C29(29)   R29       14
    C30(1)    R1        1
    C31(1)    R2        1
    C32(1)    R3        1
    C33(1)    R4        1
    C34(1)    R5        1
    C35(1)    R6        1
    C36(1)    R7        1
    C37(1)    R8        1
    C38(1)    R9        1
    C39(1)    R10       1
    C40(1)    R11       1
    C41(1)    R12       1
    C42(1)    R13       1
    C43(1)    R14       1
    C44(1)    R15       1
    C45(1)    R16       1
    C46(1)    R17       1
    C47(1)    R18       1
    C48(1)    R19       1
    C49(1)    R20       1
    C50(1)    R21       1
    C51(1)    R22       1
    C52(1)    R23       1
    C53(1)    R24       1
    C54(1)    R25       1
    C55(1)    R26       1
    C56(1)    R27       1
    C57(1)    R28       1
    C58(1)    R29       1
    C59(1)    R30       1
RHS
    RHS1      R0        -2.7041666666666663e+02
    RHS1      R1        92
    RHS1      R2        63
    RHS1      R3        67
    RHS1      R4        83
    RHS1      R5        60
    RHS1      R6        88
    RHS1      R7        78
    RHS1      R8        54
    RHS1      R9        83
    RHS1      R10       54
    RHS1      R11       91
    RHS1      R12       59
    RHS1      R13       61
    RHS1      R14       91
    RHS1      R15       51
    RHS1      R16       96
    RHS1      R17       70
    RHS1      R18       56
    RHS1      R19       56
    RHS1      R20       53
    RHS1      R21       60
    RHS1      R22       99
    RHS1      R23       54
    RHS1      R24       51
    RHS1      R25       92
    RHS1      R26       79
    RHS1      R27       51
    RHS1      R28       96
    RHS1      R29       62
    RHS1      R30       9
BOUNDS
 UP BND1      I0(3)     1
 UP BND1      I1(3)     1
 UP BND1      I2(3)     1
 UP BND1      I3(3)     1
 UP BND1      I4(3)     1
 UP BND1      I5(3)     1
 UP BND1      I6(3)     1
 UP BND1      I7(3)     1
 UP BND1      I8(3)     1
 UP BND1      I9(3)     1
 UP BND1      I10(3)    1
 UP BND1      I11(3)    1
 UP BND1      I12(3)    1
 UP BND1      I13(3)    1
 UP BND1      I14(3)    1
 UP BND1      I15(3)    1
 UP BND1      I16(3)    1
 UP BND1      I17(3)    1
 UP BND1      I18(3)    1
 UP BND1      I19(3)    1
 UP BND1      I20(3)    1
 UP BND1      I21(2)    1
 UP BND1      I22(3)    1
 UP BND1      I23(3)    1
 UP BND1      I24(3)    1
 UP BND1      I25(2)    1
 UP BND1      I26(3)    1
 UP BND1      I27(3)    1
ENDATA
